root_relax = 602.26
QCR_time = 9.7407
opt = true
obj_val = 602.06
solved_time = 0.0164
explored_nodes = 132
               0
CPXPARAM_Preprocessing_NumPass                   0
CPXPARAM_Output_CloneLog                         -1
CPXPARAM_MIP_Cuts_Cliques                        -1
CPXPARAM_Preprocessing_CoeffReduce               0
CPXPARAM_MIP_Cuts_Covers                         -1
CPXPARAM_Preprocessing_BoundStrength             0
CPXPARAM_Preprocessing_Relax                     0
CPXPARAM_MIP_Cuts_FlowCovers                     -1
CPXPARAM_MIP_Cuts_Implied                        -1
CPXPARAM_MIP_Strategy_Probe                      -1
CPXPARAM_MIP_Cuts_GUBCovers                      -1
CPXPARAM_MIP_Cuts_Gomory                         -1
CPXPARAM_MIP_Cuts_PathCut                        -1
CPXPARAM_MIP_Cuts_MIRCut                         -1
CPXPARAM_MIP_Cuts_Disjunctive                    -1
CPXPARAM_Preprocessing_Symmetry                  0
CPXPARAM_Preprocessing_RepeatPresolve            0
CPXPARAM_MIP_Strategy_FPHeur                     -1
CPXPARAM_MIP_Cuts_ZeroHalfCut                    -1
CPXPARAM_MIP_Cuts_LiftProj                       -1
CPXPARAM_Preprocessing_QPMakePSD                 0
CPXPARAM_Preprocessing_QToLin                    0
CPXPARAM_MIP_Strategy_HeuristicFreq              -1
CPXPARAM_MIP_Limits_CutPasses                    -1
CPXPARAM_MIP_Strategy_RINSHeur                   -1
CPXPARAM_TimeLimit                               1800
Tried aggregator 0 times.
Reduced MIQP has 0 rows, 63 columns, and 0 nonzeros.
Reduced MIQP has 63 binaries, 0 generals, 0 SOSs, and 0 indicators.
Reduced MIQP objective Q matrix has 2021 nonzeros.
Presolve time = 0.00 sec. (0.17 ticks)
MIP emphasis: balance optimality and feasibility.
MIP search method: dynamic search.
Parallel mode: deterministic, using up to 2 threads.
Root relaxation solution time = 0.00 sec. (1.52 ticks)

        Nodes                                         Cuts/
   Node  Left     Objective  IInf  Best Integer    Best Bound    ItCnt     Gap

      0     0     -602.2609    63                   -602.2609        7         
      0     2     -602.2609    63                   -602.2609        7         
Elapsed time = 0.01 sec. (2.20 ticks, tree = 0.02 MB, solutions = 0)
*    35    23      integral     0     -602.0000     -602.2608       91    0.04%

Root node processing (before b&c):
  Real time             =    0.01 sec. (1.83 ticks)
Parallel b&c, 2 threads:
  Real time             =    0.01 sec. (5.05 ticks)
  Sync time (average)   =    0.00 sec.
  Wait time (average)   =    0.00 sec.
                          ------------
Total (root+branch&cut) =    0.02 sec. (6.88 ticks)
